results/x-10M/X-n110-k13.vrp_seed-7.out
14971	9945
