results/x-10M/X-n110-k13.vrp_seed-7.vrp.sol
Route #1: 56 102 9 33 101 4 24 103 25 69
Route #2: 6 77 11 85 51 89 46 5
Route #3: 99 65 36 64 43 2 80
Route #4: 109 18 84 87 26 15 53 66 98
Route #5: 71 93 104 60 61 22 83 76 55 30
Route #6: 91 38 108 3 14
Route #7: 27 59 95 17 31 28 39 50 52
Route #8: 68 54 96 88 75 21 41 12 58
Route #9: 1 90 16 29 78 74 32 79
Route #10: 70 44 81 94 37 7 35 73
Route #11: 45 34 67 106 42 97 92 20 105
Route #12: 40 47 48 82 107 57 13 23
Route #13: 19 63 72 10 86 100 62 8 49
Cost 14971.000000